Argumentos: 
./solver.release -i 22 -t 86400 -a 7 -h 86400 -w Testes/Marcos-i22 -m modelo.mod -o modelo.mod 
Seed: 1622589650
hidden-TXT/Sc-n110w4.txt
hidden-TXT/H0-n110w4-0.txt
hidden-TXT/WD-n110w4-1.txt hidden-TXT/WD-n110w4-9.txt hidden-TXT/WD-n110w4-3.txt hidden-TXT/WD-n110w4-5.txt 
Reading model section from modelo.mod...
285 lines were read
Reading data section from Testes/Marcos-i22/22.dat...
19773 lines were read
Generating obj...
Generating H1turnoDia...
Generating H2coberturaMinima...
Generating H3AsucessaoTurnos...
Generating H3BsucessaoTurnos...
Generating H4qualificacao...
Generating S1coberturaOtima...
Generating S2aux1...
Generating S2aux2...
Generating S2aux3...
Generating S2aux7...
Generating S2a...
Generating S2S3aux4...
Generating S2S3aux5...
Generating S2S3aux6...
Generating S2S3aux8...
Generating S2c...
Generating S2chist...
Generating S2d...
Generating S2dHist...
Generating S2b...
Generating S2bHist...
Generating auxS5...
Generating S6a...
Generating S6b...
Generating auxS7...
Generating S7...
Model has been successfully generated
Writing problem data to `Testes/Marcos-i22/22.lp'...
9500641 lines were written
CPX0000  Presolve has eliminated 251746 rows and 289592 columns...
CPX0000  Presolve has improved bounds 55611 times...
CPX0000  Tried aggregator 2 times.
CPX0000  Aggregator has done 27774 substitutions...
CPX0000  MIP Presolve eliminated 261142 rows and 290001 columns.
CPX0000  MIP Presolve modified 6152 coefficients.
CPX0000  Aggregator did 27774 substitutions.
CPX0000  Reduced MIP has 3185243 rows, 300831 columns, and 9905622 nonzeros.
CPX0000  Reduced MIP has 300120 binaries, 711 generals, 0 SOSs, and 0 indicators.
CPX0000  Presolve time = 44.84 sec. (29736.68 ticks)
CPX0000  Probing time = 0.70 sec. (141.69 ticks)
CPX0000  Tried aggregator 1 time.
CPX0000  Presolve has eliminated 62 rows and 62 columns...
CPX0000  Presolve has improved bounds 30 times...
CPX0000  MIP Presolve eliminated 62 rows and 62 columns.
CPX0000  MIP Presolve modified 462 coefficients.
CPX0000  Reduced MIP has 3185181 rows, 300769 columns, and 9905254 nonzeros.
CPX0000  Reduced MIP has 300119 binaries, 650 generals, 0 SOSs, and 0 indicators.
CPX0000  Presolve time = 29.96 sec. (18568.62 ticks)
CPX0000  Probing time = 0.81 sec. (140.48 ticks)
CPX0000  Clique table members: 2668424.
CPX0000  MIP emphasis: balance optimality and feasibility.
CPX0000  MIP search method: dynamic search.
CPX0000  Parallel mode: none, using 1 thread.
CPX0000  Root relaxation solution time = 86274.52 sec. (11948538.91 ticks)
CPX0000
CPX0000          Nodes                                         Cuts/
CPX0000     Node  Left     Objective  IInf  Best Integer    Best Bound    ItCnt     Gap
CPX0000
CPX0000        0     0  -1.00000e+37     0                     -0.0000  5386380
CPX0000
CPX0000  Root node processing (before b&c):
CPX0000    Real time             = 86404.46 sec. (12025138.15 ticks)
CPX0000  Sequential b&c:
CPX0000    Real time             =    0.00 sec. (0.00 ticks)
CPX0000                            ------------
CPX0000  Total (root+branch&cut) = 86404.46 sec. (12025138.15 ticks)
H2 understaffing: 910
H3 shiftTypeSuccessions: 16
S1 optimalCoverage: 390
S2a consecutiveShift: 38370 = (13,2545 )
S2b consecutiveWorkingDays: 76740 = ( 0,2558 )
S3 consecutiveDaysOff: 600 = ( 20,0 )
S4 preferences: 1590
S5 completeWeekend: 0
S6 totalAssignments: 32600
S7 totalWorkingWeekeends: 8280
 

Cost Solution: 1084570

File "Solucao/n110w4-0-1-9-3-5_w0.txt", unknown skill: HN_0 for nurse HN_0 on day Monday for shift type Early

     Syntax:
     java -jar validator.jar --sce scenario --his history --weeks week_1...week_n --sols sol_1...sol_n [--penaltyonly] [--out outFile] [--verbose]

          scenario           the file containing the scenario
          history            the file containing the initial history
          week_1...week_n    the files containing the week data
          sol_1...sol_n      the files containing the solutions for the weeks
          --penaltyonly      option to print only the penalty value
          --out outfile      option: print output to outfile
          --verbose          option: prints a detailed report of violations per nurse
